p cnf 35 96
a 32 15 0
e 1 2 3 4 5 6 7 8 9 10 11 12 13 14 16 17 18 19 20 21 22 23 24 25 26 27 28 29 30 31 33 34 35 0
-2 1 0
-2 -1 0
4 2 0
4 -3 0
-2 3 -4 0
-2 6 -7 0
2 -6 -7 0
-2 -6 7 0
2 6 7 0
-8 -5 0
-8 7 0
5 -7 8 0
-10 -9 0
-10 -5 0
9 5 10 0
-11 8 0
-11 -10 0
-8 10 11 0
-14 -12 0
-14 -13 0
12 13 14 0
-15 5 0
-15 -14 0
-5 14 15 0
15 1 -16 0
-15 -1 -16 0
15 -1 16 0
-15 1 16 0
17 11 0
17 -16 0
-11 16 -17 0
18 -3 -19 0
-18 3 -19 0
18 3 19 0
-18 -3 19 0
-20 17 0
-20 19 0
-17 -19 20 0
21 8 0
21 -12 0
-8 12 -21 0
-22 -10 0
-22 -21 0
10 21 22 0
23 -7 0
23 15 0
7 -15 -23 0
24 -14 0
24 -23 0
14 23 -24 0
1 -24 -25 0
-1 24 -25 0
1 24 25 0
-1 -24 25 0
22 25 -26 0
-22 -25 -26 0
22 -25 26 0
-22 25 26 0
-27 -20 0
-27 -26 0
20 26 27 0
28 -23 0
28 -7 0
23 7 -28 0
-29 -27 0
-29 -28 0
27 28 29 0
30 4 0
30 29 0
-4 -29 -30 0
31 13 0
31 13 0
-13 -31 0
32 -31 0
32 2 0
31 -2 -32 0
30 32 -33 0
-30 -32 -33 0
30 -32 33 0
-30 32 33 0
-34 -14 0
-34 6 0
14 -6 34 0
35 -33 0
35 -34 0
33 34 -35 0
-4 1 -25 -18 0
17 -14 29 -30 20 27 0
-19 28 23 1 13 -12 -9 0
32 -14 18 0
23 -35 -1 3 17 -16 0
8 -13 6 -26 -3 -11 9 -17 0
11 28 -19 32 0
33 -22 35 20 0
-11 -20 15 -17 4 0
35 0
